Phonon calc for qp02
 &INPUTPH
    prefix='mob2',
    tr2_ph=1.0d-14,
    outdir='./tmp',
    low_directory_check=.true.,
    amass(1)=92.906,
    reduce_io=.true.,
    ldisp=.true.,
!    lqdir=.true.,
    nq1=3,
    nq2=3,
    nq3=3,
    start_q=02, last_q=02,
    fildyn="x000.dyn",
 /