&BANDS
    prefix='mob2',
    outdir='./tmp',
    filband = 'mob2_bands.bands',
!    lsym = .true.,
 /